; Options: -in -smt2
(set-option :produce-unsat-assumptions true)

(declare-fun start!947 () Bool)

(assert start!947)

(declare-fun jz!53 () (_ BitVec 32))

(declare-fun lt!2726 () (_ FloatingPoint 11 53))

(declare-datatypes ((array!274 0))(
  ( (array!275 (arr!119 (Array (_ BitVec 32) (_ BitVec 32))) (size!119 (_ BitVec 32))) )
))
(declare-fun lt!2724 () array!274)

(declare-fun b!4283 () Bool)

(declare-datatypes ((Unit!338 0))(
  ( (Unit!339) )
))
(declare-datatypes ((tuple4!158 0))(
  ( (tuple4!159 (_1!134 Unit!338) (_2!134 array!274) (_3!122 (_ BitVec 32)) (_4!79 (_ FloatingPoint 11 53))) )
))
(declare-fun e!2102 () tuple4!158)

(declare-fun Unit!340 () Unit!338)

(assert (=> b!4283 (= e!2102 (tuple4!159 Unit!340 lt!2724 jz!53 lt!2726))))

(declare-fun b!4284 () Bool)

(declare-fun e!2100 () Bool)

(declare-fun e!2101 () Bool)

(assert (=> b!4284 (= e!2100 e!2101)))

(declare-fun res!3313 () Bool)

(assert (=> b!4284 (=> (not res!3313) (not e!2101))))

(declare-fun lt!2723 () (_ FloatingPoint 11 53))

(declare-fun lt!2725 () tuple4!158)

(declare-fun i!252 () (_ BitVec 32))

(assert (=> b!4284 (= res!3313 (and (fp.leq (fp #b0 #b00000000000 #b0000000000000000000000000000000000000000000000000000) lt!2723) (fp.lt lt!2723 (fp #b0 #b10000000010 #b0000000000000000000000000000000000000000000000000000)) (bvsge (select (arr!119 (_2!134 lt!2725)) (bvsub jz!53 #b00000000000000000000000000000001)) #b00000000100000000000000000000000) (bvsle #b00000000000000000000000000000000 i!252) (bvsle i!252 (bvsub jz!53 #b00000000000000000000000000000001))))))

(assert (=> b!4284 (= lt!2723 (fp.sub roundNearestTiesToEven (_4!79 lt!2725) (fp.mul roundNearestTiesToEven (fp #b0 #b10000000010 #b0000000000000000000000000000000000000000000000000000) ((_ to_fp 11 53) roundNearestTiesToEven (ite (fp.isNaN (fp.mul roundNearestTiesToEven (_4!79 lt!2725) (fp #b0 #b01111111100 #b0000000000000000000000000000000000000000000000000000))) #b0000000000000000000000000000000000000000000000000000000000000000 (ite (fp.gt (fp.mul roundNearestTiesToEven (_4!79 lt!2725) (fp #b0 #b01111111100 #b0000000000000000000000000000000000000000000000000000)) ((_ to_fp 11 53) roundTowardZero #b0111111111111111111111111111111111111111111111111111111111111111)) #b0111111111111111111111111111111111111111111111111111111111111111 (ite (fp.lt (fp.mul roundNearestTiesToEven (_4!79 lt!2725) (fp #b0 #b01111111100 #b0000000000000000000000000000000000000000000000000000)) ((_ to_fp 11 53) roundTowardZero #b1000000000000000000000000000000000000000000000000000000000000000)) #b1000000000000000000000000000000000000000000000000000000000000000 ((_ fp.to_sbv 64) roundTowardZero (fp.mul roundNearestTiesToEven (_4!79 lt!2725) (fp #b0 #b01111111100 #b0000000000000000000000000000000000000000000000000000))))))))))))

(assert (=> b!4284 (= lt!2725 e!2102)))

(declare-fun c!692 () Bool)

(assert (=> b!4284 (= c!692 (bvsgt jz!53 #b00000000000000000000000000000000))))

(declare-datatypes ((array!276 0))(
  ( (array!277 (arr!120 (Array (_ BitVec 32) (_ FloatingPoint 11 53))) (size!120 (_ BitVec 32))) )
))
(declare-fun q!85 () array!276)

(assert (=> b!4284 (= lt!2726 (select (arr!120 q!85) jz!53))))

(assert (=> b!4284 (= lt!2724 (array!275 ((as const (Array (_ BitVec 32) (_ BitVec 32))) #b00000000000000000000000000000000) #b00000000000000000000000000010100))))

(declare-fun b!4285 () Bool)

(declare-fun computeModuloWhile!0 ((_ BitVec 32) array!276 array!274 (_ BitVec 32) (_ FloatingPoint 11 53)) tuple4!158)

(assert (=> b!4285 (= e!2102 (computeModuloWhile!0 jz!53 q!85 lt!2724 jz!53 lt!2726))))

(declare-fun res!3315 () Bool)

(assert (=> start!947 (=> (not res!3315) (not e!2100))))

(assert (=> start!947 (= res!3315 (and (bvsle #b00000000000000000000000000000010 jz!53) (bvslt jz!53 #b00000000000000000000000000010011)))))

(assert (=> start!947 e!2100))

(assert (=> start!947 true))

(declare-fun iq!165 () array!274)

(declare-fun array_inv!69 (array!274) Bool)

(assert (=> start!947 (array_inv!69 iq!165)))

(declare-fun array_inv!70 (array!276) Bool)

(assert (=> start!947 (array_inv!70 q!85)))

(declare-fun b!4282 () Bool)

(declare-fun res!3316 () Bool)

(assert (=> b!4282 (=> (not res!3316) (not e!2101))))

(declare-fun QInt!0 ((_ BitVec 32)) Bool)

(assert (=> b!4282 (= res!3316 (QInt!0 (select (arr!119 iq!165) i!252)))))

(declare-fun b!4286 () Bool)

(declare-fun res!3314 () Bool)

(assert (=> b!4286 (=> (not res!3314) (not e!2100))))

(declare-fun qInv!0 (array!276) Bool)

(assert (=> b!4286 (= res!3314 (qInv!0 q!85))))

(declare-fun b!4287 () Bool)

(declare-fun res!3311 () Bool)

(assert (=> b!4287 (=> (not res!3311) (not e!2101))))

(declare-fun iqInv!0 (array!274) Bool)

(assert (=> b!4287 (= res!3311 (iqInv!0 iq!165))))

(declare-fun b!4288 () Bool)

(assert (=> b!4288 (= e!2101 (and (not (= (bvand jz!53 #b10000000000000000000000000000000) #b00000000000000000000000000000000)) (not (= (bvand jz!53 #b10000000000000000000000000000000) (bvand (bvsub jz!53 #b00000000000000000000000000000001) #b10000000000000000000000000000000)))))))

(declare-fun b!4289 () Bool)

(declare-fun res!3312 () Bool)

(assert (=> b!4289 (=> (not res!3312) (not e!2101))))

(declare-fun carry!58 () (_ BitVec 32))

(assert (=> b!4289 (= res!3312 (and (bvsge (select (arr!119 iq!165) (bvsub jz!53 #b00000000000000000000000000000001)) #b00000000100000000000000000000000) (or (= carry!58 #b00000000000000000000000000000000) (= carry!58 #b00000000000000000000000000000001)) (bvslt i!252 (bvsub jz!53 #b00000000000000000000000000000001))))))

(assert (= (and start!947 res!3315) b!4286))

(assert (= (and b!4286 res!3314) b!4284))

(assert (= (and b!4284 c!692) b!4285))

(assert (= (and b!4284 (not c!692)) b!4283))

(assert (= (and b!4284 res!3313) b!4287))

(assert (= (and b!4287 res!3311) b!4289))

(assert (= (and b!4289 res!3312) b!4282))

(assert (= (and b!4282 res!3316) b!4288))

(declare-fun m!6385 () Bool)

(assert (=> b!4282 m!6385))

(assert (=> b!4282 m!6385))

(declare-fun m!6387 () Bool)

(assert (=> b!4282 m!6387))

(declare-fun m!6389 () Bool)

(assert (=> b!4286 m!6389))

(declare-fun m!6391 () Bool)

(assert (=> start!947 m!6391))

(declare-fun m!6393 () Bool)

(assert (=> start!947 m!6393))

(declare-fun m!6395 () Bool)

(assert (=> b!4287 m!6395))

(declare-fun m!6397 () Bool)

(assert (=> b!4284 m!6397))

(declare-fun m!6399 () Bool)

(assert (=> b!4284 m!6399))

(declare-fun m!6401 () Bool)

(assert (=> b!4289 m!6401))

(declare-fun m!6403 () Bool)

(assert (=> b!4285 m!6403))

(check-sat (not b!4286) (not b!4282) (not b!4285) (not start!947) (not b!4287))
(check-sat)
